p cnf 265 1284
-1 -33 0
-2 -33 0
1 2 33 0
1 2 -34 0
-1 -2 -34 0
-1 2 34 0
1 -2 34 0
33 -35 0
-3 -35 0
3 -33 35 0
3 -33 -36 0
-3 33 -36 0
3 33 36 0
-3 -33 36 0
35 -37 0
-4 -37 0
4 -35 37 0
4 -35 -38 0
-4 35 -38 0
4 35 38 0
-4 -35 38 0
37 -39 0
-5 -39 0
5 -37 39 0
5 -37 -40 0
-5 37 -40 0
5 37 40 0
-5 -37 40 0
39 -41 0
-6 -41 0
6 -39 41 0
6 -39 -42 0
-6 39 -42 0
6 39 42 0
-6 -39 42 0
41 -43 0
-7 -43 0
7 -41 43 0
7 -41 -44 0
-7 41 -44 0
7 41 44 0
-7 -41 44 0
43 -45 0
-8 -45 0
8 -43 45 0
8 -43 -46 0
-8 43 -46 0
8 43 46 0
-8 -43 46 0
2 -47 0
1 -47 0
-1 -2 47 0
-1 -2 -48 0
1 2 -48 0
1 -2 48 0
-1 2 48 0
-2 -3 49 0
-3 -47 49 0
-2 -47 49 0
2 3 -49 0
3 47 -49 0
2 47 -49 0
3 -49 -50 0
2 -49 -50 0
47 -49 -50 0
-3 49 50 0
-2 49 50 0
-47 49 50 0
-2 -3 -47 50 0
2 3 47 -50 0
-3 -4 51 0
-4 -49 51 0
-3 -49 51 0
3 4 -51 0
4 49 -51 0
3 49 -51 0
4 -51 -52 0
3 -51 -52 0
49 -51 -52 0
-4 51 52 0
-3 51 52 0
-49 51 52 0
-3 -4 -49 52 0
3 4 49 -52 0
-4 -5 53 0
-5 -51 53 0
-4 -51 53 0
4 5 -53 0
5 51 -53 0
4 51 -53 0
5 -53 -54 0
4 -53 -54 0
51 -53 -54 0
-5 53 54 0
-4 53 54 0
-51 53 54 0
-4 -5 -51 54 0
4 5 51 -54 0
-5 -6 55 0
-6 -53 55 0
-5 -53 55 0
5 6 -55 0
6 53 -55 0
5 53 -55 0
6 -55 -56 0
5 -55 -56 0
53 -55 -56 0
-6 55 56 0
-5 55 56 0
-53 55 56 0
-5 -6 -53 56 0
5 6 53 -56 0
-6 -7 57 0
-7 -55 57 0
-6 -55 57 0
6 7 -57 0
7 55 -57 0
6 55 -57 0
7 -57 -58 0
6 -57 -58 0
55 -57 -58 0
-7 57 58 0
-6 57 58 0
-55 57 58 0
-6 -7 -55 58 0
6 7 55 -58 0
-7 -8 59 0
-8 -57 59 0
-7 -57 59 0
7 8 -59 0
8 57 -59 0
7 57 -59 0
8 -59 -60 0
7 -59 -60 0
57 -59 -60 0
-8 59 60 0
-7 59 60 0
-57 59 60 0
-7 -8 -57 60 0
7 8 57 -60 0
8 -61 0
59 -61 0
-8 -59 61 0
-8 -59 -62 0
8 59 -62 0
-8 59 62 0
8 -59 62 0
52 -63 0
1 -63 0
-1 -52 63 0
-1 -52 -64 0
1 52 -64 0
1 -52 64 0
-1 52 64 0
-2 -54 65 0
-54 -63 65 0
-2 -63 65 0
2 54 -65 0
54 63 -65 0
2 63 -65 0
54 -65 -66 0
2 -65 -66 0
63 -65 -66 0
-54 65 66 0
-2 65 66 0
-63 65 66 0
-2 -54 -63 66 0
2 54 63 -66 0
-3 -56 67 0
-56 -65 67 0
-3 -65 67 0
3 56 -67 0
56 65 -67 0
3 65 -67 0
56 -67 -68 0
3 -67 -68 0
65 -67 -68 0
-56 67 68 0
-3 67 68 0
-65 67 68 0
-3 -56 -65 68 0
3 56 65 -68 0
-4 -58 69 0
-58 -67 69 0
-4 -67 69 0
4 58 -69 0
58 67 -69 0
4 67 -69 0
58 -69 -70 0
4 -69 -70 0
67 -69 -70 0
-58 69 70 0
-4 69 70 0
-67 69 70 0
-4 -58 -67 70 0
4 58 67 -70 0
-5 -60 71 0
-60 -69 71 0
-5 -69 71 0
5 60 -71 0
60 69 -71 0
5 69 -71 0
60 -71 -72 0
5 -71 -72 0
69 -71 -72 0
-60 71 72 0
-5 71 72 0
-69 71 72 0
-5 -60 -69 72 0
5 60 69 -72 0
-6 -62 73 0
-62 -71 73 0
-6 -71 73 0
6 62 -73 0
62 71 -73 0
6 71 -73 0
62 -73 -74 0
6 -73 -74 0
71 -73 -74 0
-62 73 74 0
-6 73 74 0
-71 73 74 0
-6 -62 -71 74 0
6 62 71 -74 0
-7 -61 75 0
-61 -73 75 0
-7 -73 75 0
7 61 -75 0
61 73 -75 0
7 73 -75 0
61 -75 -76 0
7 -75 -76 0
73 -75 -76 0
-61 75 76 0
-7 75 76 0
-73 75 76 0
-7 -61 -73 76 0
7 61 73 -76 0
8 -77 0
75 -77 0
-8 -75 77 0
-8 -75 -78 0
8 75 -78 0
-8 75 78 0
8 -75 78 0
66 -79 0
1 -79 0
-1 -66 79 0
-1 -66 -80 0
1 66 -80 0
1 -66 80 0
-1 66 80 0
-2 -68 81 0
-68 -79 81 0
-2 -79 81 0
2 68 -81 0
68 79 -81 0
2 79 -81 0
68 -81 -82 0
2 -81 -82 0
79 -81 -82 0
-68 81 82 0
-2 81 82 0
-79 81 82 0
-2 -68 -79 82 0
2 68 79 -82 0
-3 -70 83 0
-70 -81 83 0
-3 -81 83 0
3 70 -83 0
70 81 -83 0
3 81 -83 0
70 -83 -84 0
3 -83 -84 0
81 -83 -84 0
-70 83 84 0
-3 83 84 0
-81 83 84 0
-3 -70 -81 84 0
3 70 81 -84 0
-4 -72 85 0
-72 -83 85 0
-4 -83 85 0
4 72 -85 0
72 83 -85 0
4 83 -85 0
72 -85 -86 0
4 -85 -86 0
83 -85 -86 0
-72 85 86 0
-4 85 86 0
-83 85 86 0
-4 -72 -83 86 0
4 72 83 -86 0
-5 -74 87 0
-74 -85 87 0
-5 -85 87 0
5 74 -87 0
74 85 -87 0
5 85 -87 0
74 -87 -88 0
5 -87 -88 0
85 -87 -88 0
-74 87 88 0
-5 87 88 0
-85 87 88 0
-5 -74 -85 88 0
5 74 85 -88 0
-6 -76 89 0
-76 -87 89 0
-6 -87 89 0
6 76 -89 0
76 87 -89 0
6 87 -89 0
76 -89 -90 0
6 -89 -90 0
87 -89 -90 0
-76 89 90 0
-6 89 90 0
-87 89 90 0
-6 -76 -87 90 0
6 76 87 -90 0
-7 -78 91 0
-78 -89 91 0
-7 -89 91 0
7 78 -91 0
78 89 -91 0
7 89 -91 0
78 -91 -92 0
7 -91 -92 0
89 -91 -92 0
-78 91 92 0
-7 91 92 0
-89 91 92 0
-7 -78 -89 92 0
7 78 89 -92 0
-8 -77 93 0
-77 -91 93 0
-8 -91 93 0
8 77 -93 0
77 91 -93 0
8 91 -93 0
77 -93 -94 0
8 -93 -94 0
91 -93 -94 0
-77 93 94 0
-8 93 94 0
-91 93 94 0
-8 -77 -91 94 0
8 77 91 -94 0
-1 -95 0
-48 -95 0
1 48 95 0
1 48 -96 0
-1 -48 -96 0
-1 48 96 0
1 -48 96 0
95 -97 0
-50 -97 0
50 -95 97 0
50 -95 -98 0
-50 95 -98 0
50 95 98 0
-50 -95 98 0
97 -99 0
-64 -99 0
64 -97 99 0
64 -97 -100 0
-64 97 -100 0
64 97 100 0
-64 -97 100 0
99 -101 0
-80 -101 0
80 -99 101 0
80 -99 -102 0
-80 99 -102 0
80 99 102 0
-80 -99 102 0
101 -103 0
-82 -103 0
82 -101 103 0
82 -101 -104 0
-82 101 -104 0
82 101 104 0
-82 -101 104 0
103 -105 0
-84 -105 0
84 -103 105 0
84 -103 -106 0
-84 103 -106 0
84 103 106 0
-84 -103 106 0
105 -107 0
-86 -107 0
86 -105 107 0
86 -105 -108 0
-86 105 -108 0
86 105 108 0
-86 -105 108 0
107 -109 0
-88 -109 0
88 -107 109 0
88 -107 -110 0
-88 107 -110 0
88 107 110 0
-88 -107 110 0
109 -111 0
-90 -111 0
90 -109 111 0
90 -109 -112 0
-90 109 -112 0
90 109 112 0
-90 -109 112 0
111 -113 0
-92 -113 0
92 -111 113 0
92 -111 -114 0
-92 111 -114 0
92 111 114 0
-92 -111 114 0
113 -115 0
-94 -115 0
94 -113 115 0
94 -113 -116 0
-94 113 -116 0
94 113 116 0
-94 -113 116 0
115 -117 0
-93 -117 0
93 -115 117 0
93 -115 -118 0
-93 115 -118 0
93 115 118 0
-93 -115 118 0
-9 -119 0
-10 -119 0
9 10 119 0
9 10 -120 0
-9 -10 -120 0
-9 10 120 0
9 -10 120 0
119 -121 0
-11 -121 0
11 -119 121 0
11 -119 -122 0
-11 119 -122 0
11 119 122 0
-11 -119 122 0
121 -123 0
-12 -123 0
12 -121 123 0
12 -121 -124 0
-12 121 -124 0
12 121 124 0
-12 -121 124 0
123 -125 0
-13 -125 0
13 -123 125 0
13 -123 -126 0
-13 123 -126 0
13 123 126 0
-13 -123 126 0
125 -127 0
-14 -127 0
14 -125 127 0
14 -125 -128 0
-14 125 -128 0
14 125 128 0
-14 -125 128 0
127 -129 0
-15 -129 0
15 -127 129 0
15 -127 -130 0
-15 127 -130 0
15 127 130 0
-15 -127 130 0
129 -131 0
-16 -131 0
16 -129 131 0
16 -129 -132 0
-16 129 -132 0
16 129 132 0
-16 -129 132 0
10 -133 0
9 -133 0
-9 -10 133 0
-9 -10 -134 0
9 10 -134 0
9 -10 134 0
-9 10 134 0
-10 -11 135 0
-11 -133 135 0
-10 -133 135 0
10 11 -135 0
11 133 -135 0
10 133 -135 0
11 -135 -136 0
10 -135 -136 0
133 -135 -136 0
-11 135 136 0
-10 135 136 0
-133 135 136 0
-10 -11 -133 136 0
10 11 133 -136 0
-11 -12 137 0
-12 -135 137 0
-11 -135 137 0
11 12 -137 0
12 135 -137 0
11 135 -137 0
12 -137 -138 0
11 -137 -138 0
135 -137 -138 0
-12 137 138 0
-11 137 138 0
-135 137 138 0
-11 -12 -135 138 0
11 12 135 -138 0
-12 -13 139 0
-13 -137 139 0
-12 -137 139 0
12 13 -139 0
13 137 -139 0
12 137 -139 0
13 -139 -140 0
12 -139 -140 0
137 -139 -140 0
-13 139 140 0
-12 139 140 0
-137 139 140 0
-12 -13 -137 140 0
12 13 137 -140 0
-13 -14 141 0
-14 -139 141 0
-13 -139 141 0
13 14 -141 0
14 139 -141 0
13 139 -141 0
14 -141 -142 0
13 -141 -142 0
139 -141 -142 0
-14 141 142 0
-13 141 142 0
-139 141 142 0
-13 -14 -139 142 0
13 14 139 -142 0
-14 -15 143 0
-15 -141 143 0
-14 -141 143 0
14 15 -143 0
15 141 -143 0
14 141 -143 0
15 -143 -144 0
14 -143 -144 0
141 -143 -144 0
-15 143 144 0
-14 143 144 0
-141 143 144 0
-14 -15 -141 144 0
14 15 141 -144 0
-15 -16 145 0
-16 -143 145 0
-15 -143 145 0
15 16 -145 0
16 143 -145 0
15 143 -145 0
16 -145 -146 0
15 -145 -146 0
143 -145 -146 0
-16 145 146 0
-15 145 146 0
-143 145 146 0
-15 -16 -143 146 0
15 16 143 -146 0
16 -147 0
145 -147 0
-16 -145 147 0
-16 -145 -148 0
16 145 -148 0
-16 145 148 0
16 -145 148 0
136 -149 0
9 -149 0
-9 -136 149 0
-9 -136 -150 0
9 136 -150 0
9 -136 150 0
-9 136 150 0
-10 -138 151 0
-138 -149 151 0
-10 -149 151 0
10 138 -151 0
138 149 -151 0
10 149 -151 0
138 -151 -152 0
10 -151 -152 0
149 -151 -152 0
-138 151 152 0
-10 151 152 0
-149 151 152 0
-10 -138 -149 152 0
10 138 149 -152 0
-11 -140 153 0
-140 -151 153 0
-11 -151 153 0
11 140 -153 0
140 151 -153 0
11 151 -153 0
140 -153 -154 0
11 -153 -154 0
151 -153 -154 0
-140 153 154 0
-11 153 154 0
-151 153 154 0
-11 -140 -151 154 0
11 140 151 -154 0
-12 -142 155 0
-142 -153 155 0
-12 -153 155 0
12 142 -155 0
142 153 -155 0
12 153 -155 0
142 -155 -156 0
12 -155 -156 0
153 -155 -156 0
-142 155 156 0
-12 155 156 0
-153 155 156 0
-12 -142 -153 156 0
12 142 153 -156 0
-13 -144 157 0
-144 -155 157 0
-13 -155 157 0
13 144 -157 0
144 155 -157 0
13 155 -157 0
144 -157 -158 0
13 -157 -158 0
155 -157 -158 0
-144 157 158 0
-13 157 158 0
-155 157 158 0
-13 -144 -155 158 0
13 144 155 -158 0
-14 -146 159 0
-146 -157 159 0
-14 -157 159 0
14 146 -159 0
146 157 -159 0
14 157 -159 0
146 -159 -160 0
14 -159 -160 0
157 -159 -160 0
-146 159 160 0
-14 159 160 0
-157 159 160 0
-14 -146 -157 160 0
14 146 157 -160 0
-15 -148 161 0
-148 -159 161 0
-15 -159 161 0
15 148 -161 0
148 159 -161 0
15 159 -161 0
148 -161 -162 0
15 -161 -162 0
159 -161 -162 0
-148 161 162 0
-15 161 162 0
-159 161 162 0
-15 -148 -159 162 0
15 148 159 -162 0
-16 -147 163 0
-147 -161 163 0
-16 -161 163 0
16 147 -163 0
147 161 -163 0
16 161 -163 0
147 -163 -164 0
16 -163 -164 0
161 -163 -164 0
-147 163 164 0
-16 163 164 0
-161 163 164 0
-16 -147 -161 164 0
16 147 161 -164 0
152 -165 0
9 -165 0
-9 -152 165 0
-9 -152 -166 0
9 152 -166 0
9 -152 166 0
-9 152 166 0
-10 -154 167 0
-154 -165 167 0
-10 -165 167 0
10 154 -167 0
154 165 -167 0
10 165 -167 0
154 -167 -168 0
10 -167 -168 0
165 -167 -168 0
-154 167 168 0
-10 167 168 0
-165 167 168 0
-10 -154 -165 168 0
10 154 165 -168 0
-11 -156 169 0
-156 -167 169 0
-11 -167 169 0
11 156 -169 0
156 167 -169 0
11 167 -169 0
156 -169 -170 0
11 -169 -170 0
167 -169 -170 0
-156 169 170 0
-11 169 170 0
-167 169 170 0
-11 -156 -167 170 0
11 156 167 -170 0
-12 -158 171 0
-158 -169 171 0
-12 -169 171 0
12 158 -171 0
158 169 -171 0
12 169 -171 0
158 -171 -172 0
12 -171 -172 0
169 -171 -172 0
-158 171 172 0
-12 171 172 0
-169 171 172 0
-12 -158 -169 172 0
12 158 169 -172 0
-13 -160 173 0
-160 -171 173 0
-13 -171 173 0
13 160 -173 0
160 171 -173 0
13 171 -173 0
160 -173 -174 0
13 -173 -174 0
171 -173 -174 0
-160 173 174 0
-13 173 174 0
-171 173 174 0
-13 -160 -171 174 0
13 160 171 -174 0
-14 -162 175 0
-162 -173 175 0
-14 -173 175 0
14 162 -175 0
162 173 -175 0
14 173 -175 0
162 -175 -176 0
14 -175 -176 0
173 -175 -176 0
-162 175 176 0
-14 175 176 0
-173 175 176 0
-14 -162 -173 176 0
14 162 173 -176 0
-15 -164 177 0
-164 -175 177 0
-15 -175 177 0
15 164 -177 0
164 175 -177 0
15 175 -177 0
164 -177 -178 0
15 -177 -178 0
175 -177 -178 0
-164 177 178 0
-15 177 178 0
-175 177 178 0
-15 -164 -175 178 0
15 164 175 -178 0
-16 -163 179 0
-163 -177 179 0
-16 -177 179 0
16 163 -179 0
163 177 -179 0
16 177 -179 0
163 -179 -180 0
16 -179 -180 0
177 -179 -180 0
-163 179 180 0
-16 179 180 0
-177 179 180 0
-16 -163 -177 180 0
16 163 177 -180 0
168 -181 0
9 -181 0
-9 -168 181 0
-9 -168 -182 0
9 168 -182 0
9 -168 182 0
-9 168 182 0
-10 -170 183 0
-170 -181 183 0
-10 -181 183 0
10 170 -183 0
170 181 -183 0
10 181 -183 0
170 -183 -184 0
10 -183 -184 0
181 -183 -184 0
-170 183 184 0
-10 183 184 0
-181 183 184 0
-10 -170 -181 184 0
10 170 181 -184 0
-11 -172 185 0
-172 -183 185 0
-11 -183 185 0
11 172 -185 0
172 183 -185 0
11 183 -185 0
172 -185 -186 0
11 -185 -186 0
183 -185 -186 0
-172 185 186 0
-11 185 186 0
-183 185 186 0
-11 -172 -183 186 0
11 172 183 -186 0
-12 -174 187 0
-174 -185 187 0
-12 -185 187 0
12 174 -187 0
174 185 -187 0
12 185 -187 0
174 -187 -188 0
12 -187 -188 0
185 -187 -188 0
-174 187 188 0
-12 187 188 0
-185 187 188 0
-12 -174 -185 188 0
12 174 185 -188 0
-13 -176 189 0
-176 -187 189 0
-13 -187 189 0
13 176 -189 0
176 187 -189 0
13 187 -189 0
176 -189 -190 0
13 -189 -190 0
187 -189 -190 0
-176 189 190 0
-13 189 190 0
-187 189 190 0
-13 -176 -187 190 0
13 176 187 -190 0
-14 -178 191 0
-178 -189 191 0
-14 -189 191 0
14 178 -191 0
178 189 -191 0
14 189 -191 0
178 -191 -192 0
14 -191 -192 0
189 -191 -192 0
-178 191 192 0
-14 191 192 0
-189 191 192 0
-14 -178 -189 192 0
14 178 189 -192 0
-15 -180 193 0
-180 -191 193 0
-15 -191 193 0
15 180 -193 0
180 191 -193 0
15 191 -193 0
180 -193 -194 0
15 -193 -194 0
191 -193 -194 0
-180 193 194 0
-15 193 194 0
-191 193 194 0
-15 -180 -191 194 0
15 180 191 -194 0
-16 -179 195 0
-179 -193 195 0
-16 -193 195 0
16 179 -195 0
179 193 -195 0
16 193 -195 0
179 -195 -196 0
16 -195 -196 0
193 -195 -196 0
-179 195 196 0
-16 195 196 0
-193 195 196 0
-16 -179 -193 196 0
16 179 193 -196 0
184 -197 0
9 -197 0
-9 -184 197 0
-9 -184 -198 0
9 184 -198 0
9 -184 198 0
-9 184 198 0
-10 -186 199 0
-186 -197 199 0
-10 -197 199 0
10 186 -199 0
186 197 -199 0
10 197 -199 0
186 -199 -200 0
10 -199 -200 0
197 -199 -200 0
-186 199 200 0
-10 199 200 0
-197 199 200 0
-10 -186 -197 200 0
10 186 197 -200 0
-11 -188 201 0
-188 -199 201 0
-11 -199 201 0
11 188 -201 0
188 199 -201 0
11 199 -201 0
188 -201 -202 0
11 -201 -202 0
199 -201 -202 0
-188 201 202 0
-11 201 202 0
-199 201 202 0
-11 -188 -199 202 0
11 188 199 -202 0
-12 -190 203 0
-190 -201 203 0
-12 -201 203 0
12 190 -203 0
190 201 -203 0
12 201 -203 0
190 -203 -204 0
12 -203 -204 0
201 -203 -204 0
-190 203 204 0
-12 203 204 0
-201 203 204 0
-12 -190 -201 204 0
12 190 201 -204 0
-13 -192 205 0
-192 -203 205 0
-13 -203 205 0
13 192 -205 0
192 203 -205 0
13 203 -205 0
192 -205 -206 0
13 -205 -206 0
203 -205 -206 0
-192 205 206 0
-13 205 206 0
-203 205 206 0
-13 -192 -203 206 0
13 192 203 -206 0
-14 -194 207 0
-194 -205 207 0
-14 -205 207 0
14 194 -207 0
194 205 -207 0
14 205 -207 0
194 -207 -208 0
14 -207 -208 0
205 -207 -208 0
-194 207 208 0
-14 207 208 0
-205 207 208 0
-14 -194 -205 208 0
14 194 205 -208 0
-15 -196 209 0
-196 -207 209 0
-15 -207 209 0
15 196 -209 0
196 207 -209 0
15 207 -209 0
196 -209 -210 0
15 -209 -210 0
207 -209 -210 0
-196 209 210 0
-15 209 210 0
-207 209 210 0
-15 -196 -207 210 0
15 196 207 -210 0
-16 -195 211 0
-195 -209 211 0
-16 -209 211 0
16 195 -211 0
195 209 -211 0
16 209 -211 0
195 -211 -212 0
16 -211 -212 0
209 -211 -212 0
-195 211 212 0
-16 211 212 0
-209 211 212 0
-16 -195 -209 212 0
16 195 209 -212 0
-9 -213 0
-134 -213 0
9 134 213 0
9 134 -214 0
-9 -134 -214 0
-9 134 214 0
9 -134 214 0
213 -215 0
-150 -215 0
150 -213 215 0
150 -213 -216 0
-150 213 -216 0
150 213 216 0
-150 -213 216 0
215 -217 0
-166 -217 0
166 -215 217 0
166 -215 -218 0
-166 215 -218 0
166 215 218 0
-166 -215 218 0
217 -219 0
-182 -219 0
182 -217 219 0
182 -217 -220 0
-182 217 -220 0
182 217 220 0
-182 -217 220 0
219 -221 0
-198 -221 0
198 -219 221 0
198 -219 -222 0
-198 219 -222 0
198 219 222 0
-198 -219 222 0
221 -223 0
-200 -223 0
200 -221 223 0
200 -221 -224 0
-200 221 -224 0
200 221 224 0
-200 -221 224 0
223 -225 0
-202 -225 0
202 -223 225 0
202 -223 -226 0
-202 223 -226 0
202 223 226 0
-202 -223 226 0
225 -227 0
-204 -227 0
204 -225 227 0
204 -225 -228 0
-204 225 -228 0
204 225 228 0
-204 -225 228 0
227 -229 0
-206 -229 0
206 -227 229 0
206 -227 -230 0
-206 227 -230 0
206 227 230 0
-206 -227 230 0
229 -231 0
-208 -231 0
208 -229 231 0
208 -229 -232 0
-208 229 -232 0
208 229 232 0
-208 -229 232 0
231 -233 0
-210 -233 0
210 -231 233 0
210 -231 -234 0
-210 231 -234 0
210 231 234 0
-210 -231 234 0
233 -235 0
-212 -235 0
212 -233 235 0
212 -233 -236 0
-212 233 -236 0
212 233 236 0
-212 -233 236 0
235 -237 0
-211 -237 0
211 -235 237 0
211 -235 -238 0
-211 235 -238 0
211 235 238 0
-211 -235 238 0
1 -239 0
134 -239 0
-1 -134 239 0
-1 -134 -240 0
1 134 -240 0
-1 134 240 0
1 -134 240 0
-48 -150 241 0
-48 -239 241 0
-150 -239 241 0
48 150 -241 0
48 239 -241 0
150 239 -241 0
48 -241 -242 0
150 -241 -242 0
239 -241 -242 0
-48 241 242 0
-150 241 242 0
-239 241 242 0
-48 -150 -239 242 0
48 150 239 -242 0
-50 -166 243 0
-50 -241 243 0
-166 -241 243 0
50 166 -243 0
50 241 -243 0
166 241 -243 0
50 -243 -244 0
166 -243 -244 0
241 -243 -244 0
-50 243 244 0
-166 243 244 0
-241 243 244 0
-50 -166 -241 244 0
50 166 241 -244 0
-64 -182 245 0
-64 -243 245 0
-182 -243 245 0
64 182 -245 0
64 243 -245 0
182 243 -245 0
64 -245 -246 0
182 -245 -246 0
243 -245 -246 0
-64 245 246 0
-182 245 246 0
-243 245 246 0
-64 -182 -243 246 0
64 182 243 -246 0
-80 -198 247 0
-80 -245 247 0
-198 -245 247 0
80 198 -247 0
80 245 -247 0
198 245 -247 0
80 -247 -248 0
198 -247 -248 0
245 -247 -248 0
-80 247 248 0
-198 247 248 0
-245 247 248 0
-80 -198 -245 248 0
80 198 245 -248 0
-82 -200 249 0
-82 -247 249 0
-200 -247 249 0
82 200 -249 0
82 247 -249 0
200 247 -249 0
82 -249 -250 0
200 -249 -250 0
247 -249 -250 0
-82 249 250 0
-200 249 250 0
-247 249 250 0
-82 -200 -247 250 0
82 200 247 -250 0
-84 -202 251 0
-84 -249 251 0
-202 -249 251 0
84 202 -251 0
84 249 -251 0
202 249 -251 0
84 -251 -252 0
202 -251 -252 0
249 -251 -252 0
-84 251 252 0
-202 251 252 0
-249 251 252 0
-84 -202 -249 252 0
84 202 249 -252 0
-86 -204 253 0
-86 -251 253 0
-204 -251 253 0
86 204 -253 0
86 251 -253 0
204 251 -253 0
86 -253 -254 0
204 -253 -254 0
251 -253 -254 0
-86 253 254 0
-204 253 254 0
-251 253 254 0
-86 -204 -251 254 0
86 204 251 -254 0
-88 -206 255 0
-88 -253 255 0
-206 -253 255 0
88 206 -255 0
88 253 -255 0
206 253 -255 0
88 -255 -256 0
206 -255 -256 0
253 -255 -256 0
-88 255 256 0
-206 255 256 0
-253 255 256 0
-88 -206 -253 256 0
88 206 253 -256 0
-90 -208 257 0
-90 -255 257 0
-208 -255 257 0
90 208 -257 0
90 255 -257 0
208 255 -257 0
90 -257 -258 0
208 -257 -258 0
255 -257 -258 0
-90 257 258 0
-208 257 258 0
-255 257 258 0
-90 -208 -255 258 0
90 208 255 -258 0
-92 -210 259 0
-92 -257 259 0
-210 -257 259 0
92 210 -259 0
92 257 -259 0
210 257 -259 0
92 -259 -260 0
210 -259 -260 0
257 -259 -260 0
-92 259 260 0
-210 259 260 0
-257 259 260 0
-92 -210 -257 260 0
92 210 257 -260 0
-94 -212 261 0
-94 -259 261 0
-212 -259 261 0
94 212 -261 0
94 259 -261 0
212 259 -261 0
94 -261 -262 0
212 -261 -262 0
259 -261 -262 0
-94 261 262 0
-212 261 262 0
-259 261 262 0
-94 -212 -259 262 0
94 212 259 -262 0
-93 -211 263 0
-93 -261 263 0
-211 -261 263 0
93 211 -263 0
93 261 -263 0
211 261 -263 0
93 -263 -264 0
211 -263 -264 0
261 -263 -264 0
-93 263 264 0
-211 263 264 0
-261 263 264 0
-93 -211 -261 264 0
93 211 261 -264 0
9 -265 0
240 -265 0
242 -265 0
-244 -265 0
246 -265 0
248 -265 0
-250 -265 0
-252 -265 0
-254 -265 0
-256 -265 0
-258 -265 0
-260 -265 0
-262 -265 0
-263 -265 0
-264 -265 0
-9 -240 -242 244 -246 -248 250 252 254 256 258 260 262 263 264 265 0
265 0
c main::$tmp::return_value_nondet_char!0@1#1 17 18 19 20 21 22 23 24
c symex::nondet1 9 10 11 12 13 14 15 16
c symex::nondet0 1 2 3 4 5 6 7 8
c main::$tmp::return_value_nondet_char$0!0@1#2 9 10 11 12 13 14 15 16
c __CPROVER_rounding_mode!0#1 FALSE FALSE FALSE FALSE FALSE FALSE FALSE FALSE FALSE FALSE FALSE FALSE FALSE FALSE FALSE FALSE FALSE FALSE FALSE FALSE FALSE FALSE FALSE FALSE FALSE FALSE FALSE FALSE FALSE FALSE FALSE FALSE
c main::$tmp::return_value_nondet_char$0!0@1#1 25 26 27 28 29 30 31 32
c __CPROVER_memory_leak#1 FALSE FALSE FALSE FALSE FALSE FALSE FALSE FALSE FALSE FALSE FALSE FALSE FALSE FALSE FALSE FALSE FALSE FALSE FALSE FALSE FALSE FALSE FALSE FALSE FALSE FALSE FALSE FALSE FALSE FALSE FALSE FALSE FALSE FALSE FALSE FALSE FALSE FALSE FALSE FALSE FALSE FALSE FALSE FALSE FALSE FALSE FALSE FALSE FALSE FALSE FALSE FALSE FALSE FALSE FALSE FALSE FALSE FALSE FALSE FALSE FALSE FALSE FALSE FALSE
c __CPROVER_max_malloc_size#1 FALSE FALSE FALSE FALSE FALSE FALSE FALSE FALSE FALSE FALSE FALSE FALSE FALSE FALSE FALSE FALSE FALSE FALSE FALSE FALSE FALSE FALSE FALSE FALSE FALSE FALSE FALSE FALSE FALSE FALSE FALSE FALSE FALSE FALSE FALSE FALSE FALSE FALSE FALSE FALSE FALSE FALSE FALSE FALSE FALSE FALSE FALSE FALSE FALSE FALSE FALSE FALSE FALSE FALSE FALSE TRUE FALSE FALSE FALSE FALSE FALSE FALSE FALSE FALSE
c __CPROVER_deallocated#1 FALSE FALSE FALSE FALSE FALSE FALSE FALSE FALSE FALSE FALSE FALSE FALSE FALSE FALSE FALSE FALSE FALSE FALSE FALSE FALSE FALSE FALSE FALSE FALSE FALSE FALSE FALSE FALSE FALSE FALSE FALSE FALSE FALSE FALSE FALSE FALSE FALSE FALSE FALSE FALSE FALSE FALSE FALSE FALSE FALSE FALSE FALSE FALSE FALSE FALSE FALSE FALSE FALSE FALSE FALSE FALSE FALSE FALSE FALSE FALSE FALSE FALSE FALSE FALSE
c main::$tmp::return_value_nondet_char!0@1#2 1 2 3 4 5 6 7 8
c __CPROVER_dead_object#1 FALSE FALSE FALSE FALSE FALSE FALSE FALSE FALSE FALSE FALSE FALSE FALSE FALSE FALSE FALSE FALSE FALSE FALSE FALSE FALSE FALSE FALSE FALSE FALSE FALSE FALSE FALSE FALSE FALSE FALSE FALSE FALSE FALSE FALSE FALSE FALSE FALSE FALSE FALSE FALSE FALSE FALSE FALSE FALSE FALSE FALSE FALSE FALSE FALSE FALSE FALSE FALSE FALSE FALSE FALSE FALSE FALSE FALSE FALSE FALSE FALSE FALSE FALSE FALSE
